# Benzene - DLPNO-CCSD(T) single point
! DLPNO-CCSD(T) def2-TZVPP def2-TZVPP/C SP
%maxcore 8000
%pal nprocs 8 end

* xyz 0 1
  C   1.390000   0.000000   0.000000
  C   0.695000   1.203781   0.000000
  C  -0.695000   1.203781   0.000000
  C  -1.390000   0.000000   0.000000
  C  -0.695000  -1.203781   0.000000
  C   0.695000  -1.203781   0.000000
  H   2.470000   0.000000   0.000000
  H   1.235000   2.139088   0.000000
  H  -1.235000   2.139088   0.000000
  H  -2.470000   0.000000   0.000000
  H  -1.235000  -2.139088   0.000000
  H   1.235000  -2.139088   0.000000
*
