# Ethylene - MP2 frequency calculation
! MP2 def2-TZVP FREQ
%maxcore 4000
%pal nprocs 4 end
%freq temp 298.15 end

* xyz 0 1
  C   0.000000   0.000000   0.667000
  C   0.000000   0.000000  -0.667000
  H   0.000000   0.920000   1.230000
  H   0.000000  -0.920000   1.230000
  H   0.000000   0.920000  -1.230000
  H   0.000000  -0.920000  -1.230000
*
